results/res_prop_muc/res_Cimatti_mathsat_cores/QF_RDL/fischer3-mutex-10.smt.smt2.res
unsat
( c100
  c1001
  c1004
  c1006
  c1007
  c101
  c1011
  c1014
  c1017
  c1019
  c1020
  c1024
  c1025
  c1028
  c1029
  c1031
  c1033
  c1035
  c1036
  c1037
  c1041
  c1043
  c1044
  c1052
  c1053
  c1054
  c1055
  c1056
  c1057
  c1058
  c106
  c1066
  c1067
  c1068
  c1076
  c1077
  c1079
  c108
  c1081
  c1086
  c1087
  c1088
  c1092
  c1095
  c1097
  c1098
  c110
  c1100
  c1101
  c1104
  c1106
  c1109
  c1110
  c1111
  c1114
  c1117
  c1119
  c1122
  c1125
  c1126
  c1127
  c1128
  c1129
  c1130
  c1131
  c1139
  c1140
  c1141
  c1149
  c1151
  c1152
  c1155
  c1159
  c116
  c1160
  c1161
  c1162
  c1165
  c1168
  c117
  c1170
  c1171
  c1172
  c1174
  c1177
  c1178
  c1179
  c118
  c1180
  c1182
  c1183
  c1184
  c1187
  c1189
  c1190
  c1191
  c1192
  c1195
  c1198
  c1199
  c120
  c1200
  c1201
  c1202
  c1203
  c1204
  c121
  c1212
  c1213
  c1219
  c1220
  c1223
  c1224
  c1228
  c1231
  c1232
  c1236
  c1239
  c1240
  c1241
  c1242
  c1243
  c1244
  c1247
  c1249
  c1250
  c1257
  c1259
  c1268
  c1269
  c1270
  c1271
  c1272
  c1273
  c1274
  c1275
  c1276
  c1277
  c1278
  c1279
  c1283
  c1286
  c1287
  c1291
  c1294
  c1295
  c1297
  c1298
  c13
  c130
  c1307
  c1308
  c131
  c1310
  c1313
  c1316
  c1318
  c1319
  c1322
  c1323
  c1326
  c1329
  c133
  c1330
  c1332
  c1337
  c1340
  c1341
  c1343
  c1345
  c1346
  c1347
  c1348
  c1349
  c1353
  c1355
  c1356
  c1357
  c1358
  c1364
  c1365
  c1366
  c1367
  c1368
  c1369
  c1370
  c1378
  c1379
  c1388
  c1390
  c1398
  c1399
  c1403
  c1404
  c1409
  c1410
  c1412
  c1413
  c1416
  c1418
  c1419
  c1421
  c1422
  c1423
  c1426
  c1428
  c1429
  c143
  c1430
  c1431
  c1437
  c1438
  c1439
  c1440
  c1441
  c1442
  c1443
  c1451
  c1452
  c146
  c1461
  c1462
  c1463
  c1471
  c1472
  c1476
  c1477
  c1482
  c1483
  c1485
  c1486
  c1489
  c1491
  c1492
  c1493
  c1494
  c1495
  c1496
  c1499
  c1501
  c1502
  c1503
  c1504
  c1510
  c1511
  c1512
  c1513
  c1514
  c1515
  c1516
  c152
  c1524
  c1525
  c1532
  c1535
  c1536
  c1540
  c1543
  c1544
  c1548
  c1552
  c1553
  c1554
  c1555
  c1556
  c1559
  c156
  c1561
  c1562
  c1569
  c1571
  c1572
  c1580
  c1581
  c1582
  c1583
  c1584
  c1585
  c1586
  c1587
  c1588
  c1589
  c159
  c1590
  c1591
  c1595
  c1598
  c1599
  c16
  c1603
  c1606
  c1607
  c161
  c1610
  c1611
  c1619
  c162
  c1620
  c1629
  c1630
  c1638
  c1641
  c1643
  c1644
  c1649
  c1652
  c1653
  c1655
  c1658
  c1660
  c1661
  c1665
  c1667
  c1668
  c1669
  c1670
  c1672
  c1676
  c1677
  c1678
  c1679
  c168
  c1680
  c1681
  c1682
  c1690
  c1691
  c17
  c1700
  c1702
  c1710
  c1711
  c1719
  c1721
  c1722
  c1724
  c1725
  c1728
  c173
  c1731
  c1733
  c1734
  c1735
  c1738
  c174
  c1740
  c1741
  c1742
  c1743
  c1745
  c1749
  c1750
  c1751
  c1752
  c1753
  c1754
  c1755
  c1763
  c1764
  c1773
  c1775
  c1783
  c1784
  c179
  c1792
  c1794
  c1795
  c1797
  c1798
  c180
  c1801
  c1803
  c1804
  c1806
  c1807
  c1808
  c181
  c1811
  c1813
  c1814
  c1816
  c1817
  c1818
  c1822
  c1823
  c1824
  c1825
  c1826
  c1827
  c1828
  c183
  c1836
  c1837
  c1844
  c1847
  c1848
  c1852
  c1855
  c1856
  c1860
  c1863
  c1864
  c1865
  c1866
  c1868
  c1871
  c1873
  c1874
  c1881
  c1883
  c1884
  c189
  c1892
  c1893
  c1894
  c1895
  c1896
  c1897
  c1898
  c1899
  c190
  c1900
  c1901
  c1902
  c1903
  c1907
  c191
  c1910
  c1911
  c1915
  c1918
  c1919
  c1922
  c193
  c1931
  c194
  c1941
  c1950
  c1952
  c1953
  c1955
  c1956
  c1961
  c1964
  c1965
  c1970
  c1977
  c1981
  c1982
  c1984
  c1988
  c1989
  c1990
  c1991
  c1992
  c1993
  c1994
  c2003
  c2012
  c2022
  c203
  c2031
  c2033
  c2034
  c2036
  c2037
  c204
  c2043
  c2050
  c2054
  c2055
  c2056
  c2057
  c2058
  c206
  c2061
  c2062
  c2063
  c2064
  c2065
  c2066
  c2067
  c2076
  c2085
  c2095
  c21
  c2104
  c2107
  c2109
  c2110
  c2116
  c2123
  c2127
  c2128
  c2129
  c2130
  c2131
  c2134
  c2135
  c2136
  c2137
  c2138
  c2139
  c2140
  c2148
  c2149
  c2156
  c2159
  c216
  c2160
  c2164
  c2167
  c2168
  c2172
  c2175
  c2176
  c2177
  c2183
  c2185
  c2186
  c219
  c2193
  c2195
  c2196
  c22
  c2204
  c2205
  c2206
  c2207
  c2208
  c2209
  c2210
  c2211
  c2212
  c2213
  c2214
  c2215
  c2219
  c2222
  c2223
  c2227
  c2230
  c2231
  c2234
  c2243
  c225
  c2253
  c2262
  c2264
  c2273
  c2276
  c2277
  c2282
  c2289
  c229
  c2293
  c2294
  c2295
  c2296
  c2297
  c23
  c2300
  c2301
  c2302
  c2303
  c2304
  c2305
  c2306
  c2315
  c232
  c2324
  c2334
  c234
  c2343
  c2345
  c235
  c2355
  c2364
  c2366
  c2367
  c2368
  c2369
  c2370
  c2373
  c2374
  c2375
  c2376
  c2377
  c2378
  c2379
  c2388
  c2397
  c24
  c2407
  c241
  c2416
  c2418
  c2428
  c2435
  c2439
  c2440
  c2441
  c2442
  c2443
  c2446
  c2447
  c2448
  c2449
  c2450
  c2451
  c2452
  c246
  c2460
  c2461
  c2468
  c247
  c2471
  c2472
  c2476
  c2479
  c2480
  c2484
  c2487
  c2488
  c2495
  c2497
  c2498
  c25
  c2505
  c2507
  c2508
  c2516
  c2517
  c2518
  c2519
  c252
  c2520
  c2521
  c2522
  c2523
  c2524
  c2525
  c2526
  c2527
  c2531
  c2535
  c2539
  c254
  c2543
  c2545
  c2555
  c256
  c2565
  c2574
  c2585
  c2589
  c2594
  c26
  c2605
  c2606
  c2607
  c2608
  c2609
  c2612
  c2613
  c2614
  c2616
  c2617
  c262
  c2626
  c263
  c2636
  c264
  c2646
  c2655
  c266
  c2667
  c267
  c2678
  c2679
  c2680
  c2681
  c2682
  c2685
  c2686
  c2687
  c2689
  c2690
  c2699
  c27
  c2709
  c2719
  c2728
  c2740
  c2751
  c2752
  c2753
  c2754
  c2755
  c2758
  c2759
  c276
  c2760
  c2762
  c2763
  c2772
  c2773
  c28
  c2801
  c2802
  c2803
  c2804
  c2817
  c2819
  c2820
  c2828
  c284
  c2858
  c2868
  c2878
  c288
  c2888
  c29
  c2906
  c2915
  c292
  c2924
  c2939
  c2948
  c2958
  c296
  c2967
  c2979
  c2988
  c2997
  c30
  c300
  c3012
  c3022
  c3032
  c304
  c3042
  c3052
  c3061
  c3070
  c3084
  c3085
  c3092
  c3096
  c31
  c3100
  c3104
  c3108
  c3112
  c3127
  c3141
  c3142
  c3143
  c3144
  c3145
  c3146
  c3147
  c3148
  c3149
  c3150
  c3151
  c3153
  c3157
  c3161
  c3164
  c3168
  c3172
  c3177
  c3181
  c3185
  c3189
  c3193
  c3197
  c3200
  c3201
  c3204
  c3205
  c3208
  c3209
  c3212
  c3213
  c3216
  c3217
  c3220
  c3221
  c3224
  c3225
  c3226
  c3228
  c3229
  c3230
  c3232
  c3233
  c3234
  c3236
  c3237
  c3238
  c3240
  c3241
  c3242
  c3244
  c3245
  c3246
  c3248
  c3249
  c3250
  c3252
  c3253
  c3254
  c3256
  c3257
  c3258
  c3260
  c3261
  c3262
  c3264
  c3265
  c3266
  c3268
  c3269
  c3270
  c3272
  c3273
  c3274
  c3275
  c3276
  c3277
  c3278
  c3279
  c3281
  c3282
  c3283
  c3284
  c3286
  c3287
  c3288
  c3290
  c3291
  c3293
  c3294
  c334
  c335
  c336
  c337
  c338
  c339
  c343
  c347
  c35
  c351
  c354
  c355
  c359
  c361
  c362
  c364
  c370
  c372
  c374
  c377
  c381
  c382
  c383
  c387
  c39
  c390
  c393
  c394
  c400
  c401
  c405
  c407
  c408
  c412
  c413
  c417
  c418
  c419
  c420
  c422
  c428
  c429
  c43
  c430
  c431
  c432
  c433
  c434
  c442
  c443
  c445
  c451
  c455
  c458
  c462
  c463
  c464
  c468
  c47
  c471
  c473
  c474
  c475
  c480
  c485
  c486
  c49
  c490
  c492
  c493
  c495
  c50
  c501
  c502
  c503
  c504
  c505
  c506
  c507
  c515
  c516
  c518
  c52
  c524
  c526
  c528
  c531
  c535
  c536
  c537
  c541
  c544
  c547
  c548
  c553
  c558
  c559
  c560
  c563
  c565
  c566
  c568
  c574
  c575
  c576
  c577
  c578
  c579
  c580
  c588
  c589
  c595
  c596
  c6
  c600
  c604
  c608
  c611
  c612
  c616
  c617
  c618
  c619
  c62
  c620
  c633
  c635
  c636
  c644
  c646
  c647
  c648
  c649
  c65
  c650
  c651
  c653
  c654
  c655
  c659
  c663
  c666
  c667
  c671
  c673
  c674
  c676
  c682
  c684
  c686
  c689
  c692
  c694
  c695
  c698
  c699
  c702
  c705
  c706
  c708
  c71
  c712
  c713
  c717
  c719
  c721
  c724
  c725
  c729
  c730
  c732
  c734
  c740
  c741
  c742
  c743
  c744
  c745
  c746
  c75
  c754
  c755
  c757
  c764
  c765
  c767
  c774
  c775
  c776
  c78
  c780
  c783
  c785
  c786
  c788
  c789
  c792
  c794
  c796
  c797
  c798
  c80
  c802
  c804
  c805
  c807
  c81
  c810
  c813
  c814
  c815
  c816
  c817
  c818
  c819
  c827
  c828
  c829
  c830
  c833
  c837
  c838
  c840
  c843
  c846
  c847
  c848
  c849
  c853
  c856
  c857
  c859
  c860
  c862
  c865
  c867
  c869
  c870
  c871
  c875
  c877
  c878
  c880
  c881
  c886
  c887
  c888
  c889
  c89
  c890
  c891
  c892
  c900
  c901
  c907
  c908
  c911
  c912
  c916
  c919
  c920
  c923
  c924
  c927
  c928
  c929
  c93
  c930
  c931
  c932
  c935
  c937
  c938
  c945
  c947
  c948
  c95
  c956
  c957
  c958
  c959
  c960
  c961
  c962
  c963
  c964
  c965
  c966
  c967
  c971
  c974
  c975
  c979
  c983
  c985
  c986
  c987
  c995
  c996
  c998 )
